data/lp_files/pEFS/88_9.lp
\ Model foo
\ LP format - for model browsing. Use MPS format to capture full model detail.
Minimize
  z
Subject To
 allocateEach[1]: x[1,1] + x[2,1] + x[3,1] + x[4,1] + x[5,1] = 1
 allocateEach[2]: x[1,2] + x[2,2] + x[3,2] + x[4,2] + x[5,2] = 1
 allocateEach[3]: x[1,3] + x[2,3] + x[3,3] + x[4,3] + x[5,3] = 1
 allocateEach[4]: x[1,4] + x[2,4] + x[3,4] + x[4,4] + x[5,4] = 1
 allocateEach[5]: x[1,5] + x[2,5] + x[3,5] + x[4,5] + x[5,5] = 1
 allocateEach[6]: x[1,6] + x[2,6] + x[3,6] + x[4,6] + x[5,6] = 1
 allocateEach[7]: x[1,7] + x[2,7] + x[3,7] + x[4,7] + x[5,7] = 1
 allocateEach[8]: x[1,8] + x[2,8] + x[3,8] + x[4,8] + x[5,8] = 1
 allocateAllCash: cashProportion[1] + cashProportion[2] + cashProportion[3]
   + cashProportion[4] + cashProportion[5] = 1
 findWorstP[1,2]: z + 0.1736563341147869 cashProportion[1]
   - 0.1736563341147869 cashProportion[2] + 0.0962577059998263 x[1,1]
   + 0.0375618650690284 x[1,2] + 0.1273769210731961 x[1,3]
   + 0.1455240079881914 x[1,4] + 0.1482851437006165 x[1,5]
   + 0.0246591994442997 x[1,6] + 0.1622297473300339 x[1,7]
   + 0.0844490752800208 x[1,8] - 0.0962577059998263 x[2,1]
   - 0.0375618650690284 x[2,2] - 0.1273769210731961 x[2,3]
   - 0.1455240079881914 x[2,4] - 0.1482851437006165 x[2,5]
   - 0.0246591994442997 x[2,6] - 0.1622297473300339 x[2,7]
   - 0.0844490752800208 x[2,8] >= 0
 findWorstP[1,3]: z + 0.1736563341147869 cashProportion[1]
   - 0.1736563341147869 cashProportion[3] + 0.0962577059998263 x[1,1]
   + 0.0375618650690284 x[1,2] + 0.1273769210731961 x[1,3]
   + 0.1455240079881914 x[1,4] + 0.1482851437006165 x[1,5]
   + 0.0246591994442997 x[1,6] + 0.1622297473300339 x[1,7]
   + 0.0844490752800208 x[1,8] - 0.0962577059998263 x[3,1]
   - 0.0375618650690284 x[3,2] - 0.1273769210731961 x[3,3]
   - 0.1455240079881914 x[3,4] - 0.1482851437006165 x[3,5]
   - 0.0246591994442997 x[3,6] - 0.1622297473300339 x[3,7]
   - 0.0844490752800208 x[3,8] >= 0
 findWorstP[1,4]: z + 0.1736563341147869 cashProportion[1]
   - 0.1736563341147869 cashProportion[4] + 0.0962577059998263 x[1,1]
   + 0.0375618650690284 x[1,2] + 0.1273769210731961 x[1,3]
   + 0.1455240079881914 x[1,4] + 0.1482851437006165 x[1,5]
   + 0.0246591994442997 x[1,6] + 0.1622297473300339 x[1,7]
   + 0.0844490752800208 x[1,8] - 0.0962577059998263 x[4,1]
   - 0.0375618650690284 x[4,2] - 0.1273769210731961 x[4,3]
   - 0.1455240079881914 x[4,4] - 0.1482851437006165 x[4,5]
   - 0.0246591994442997 x[4,6] - 0.1622297473300339 x[4,7]
   - 0.0844490752800208 x[4,8] >= 0
 findWorstP[1,5]: z + 0.1736563341147869 cashProportion[1]
   - 0.1736563341147869 cashProportion[5] + 0.0962577059998263 x[1,1]
   + 0.0375618650690284 x[1,2] + 0.1273769210731961 x[1,3]
   + 0.1455240079881914 x[1,4] + 0.1482851437006165 x[1,5]
   + 0.0246591994442997 x[1,6] + 0.1622297473300339 x[1,7]
   + 0.0844490752800208 x[1,8] - 0.0962577059998263 x[5,1]
   - 0.0375618650690284 x[5,2] - 0.1273769210731961 x[5,3]
   - 0.1455240079881914 x[5,4] - 0.1482851437006165 x[5,5]
   - 0.0246591994442997 x[5,6] - 0.1622297473300339 x[5,7]
   - 0.0844490752800208 x[5,8] >= 0
 findWorstP[2,1]: z - 0.186581088140906 cashProportion[1]
   + 0.186581088140906 cashProportion[2] - 0.1233114411523248 x[1,1]
   - 0.071255317561012 x[1,2] - 0.1190200761250839 x[1,3]
   - 0.0107843868945444 x[1,4] - 0.0104671990447048 x[1,5]
   - 0.1784461526979625 x[1,6] - 0.1862825583998806 x[1,7]
   - 0.1138517799835808 x[1,8] + 0.1233114411523248 x[2,1]
   + 0.071255317561012 x[2,2] + 0.1190200761250839 x[2,3]
   + 0.0107843868945444 x[2,4] + 0.0104671990447048 x[2,5]
   + 0.1784461526979625 x[2,6] + 0.1862825583998806 x[2,7]
   + 0.1138517799835808 x[2,8] >= 0
 findWorstP[2,3]: z + 0.186581088140906 cashProportion[2]
   - 0.186581088140906 cashProportion[3] + 0.1233114411523248 x[2,1]
   + 0.071255317561012 x[2,2] + 0.1190200761250839 x[2,3]
   + 0.0107843868945444 x[2,4] + 0.0104671990447048 x[2,5]
   + 0.1784461526979625 x[2,6] + 0.1862825583998806 x[2,7]
   + 0.1138517799835808 x[2,8] - 0.1233114411523248 x[3,1]
   - 0.071255317561012 x[3,2] - 0.1190200761250839 x[3,3]
   - 0.0107843868945444 x[3,4] - 0.0104671990447048 x[3,5]
   - 0.1784461526979625 x[3,6] - 0.1862825583998806 x[3,7]
   - 0.1138517799835808 x[3,8] >= 0
 findWorstP[2,4]: z + 0.186581088140906 cashProportion[2]
   - 0.186581088140906 cashProportion[4] + 0.1233114411523248 x[2,1]
   + 0.071255317561012 x[2,2] + 0.1190200761250839 x[2,3]
   + 0.0107843868945444 x[2,4] + 0.0104671990447048 x[2,5]
   + 0.1784461526979625 x[2,6] + 0.1862825583998806 x[2,7]
   + 0.1138517799835808 x[2,8] - 0.1233114411523248 x[4,1]
   - 0.071255317561012 x[4,2] - 0.1190200761250839 x[4,3]
   - 0.0107843868945444 x[4,4] - 0.0104671990447048 x[4,5]
   - 0.1784461526979625 x[4,6] - 0.1862825583998806 x[4,7]
   - 0.1138517799835808 x[4,8] >= 0
 findWorstP[2,5]: z + 0.186581088140906 cashProportion[2]
   - 0.186581088140906 cashProportion[5] + 0.1233114411523248 x[2,1]
   + 0.071255317561012 x[2,2] + 0.1190200761250839 x[2,3]
   + 0.0107843868945444 x[2,4] + 0.0104671990447048 x[2,5]
   + 0.1784461526979625 x[2,6] + 0.1862825583998806 x[2,7]
   + 0.1138517799835808 x[2,8] - 0.1233114411523248 x[5,1]
   - 0.071255317561012 x[5,2] - 0.1190200761250839 x[5,3]
   - 0.0107843868945444 x[5,4] - 0.0104671990447048 x[5,5]
   - 0.1784461526979625 x[5,6] - 0.1862825583998806 x[5,7]
   - 0.1138517799835808 x[5,8] >= 0
 findWorstP[3,1]: z - 0.2170138888888889 cashProportion[1]
   + 0.2170138888888889 cashProportion[3] - 0.1194227430555555 x[1,1]
   - 0.0962022569444444 x[1,2] - 0.1619140625 x[1,3]
   - 0.1480034722222222 x[1,4] - 0.0654513888888889 x[1,5]
   - 0.0800130208333333 x[1,6] - 0.0325303819444444 x[1,7]
   - 0.0794487847222222 x[1,8] + 0.1194227430555555 x[3,1]
   + 0.0962022569444444 x[3,2] + 0.1619140625 x[3,3]
   + 0.1480034722222222 x[3,4] + 0.0654513888888889 x[3,5]
   + 0.0800130208333333 x[3,6] + 0.0325303819444444 x[3,7]
   + 0.0794487847222222 x[3,8] >= 0
 findWorstP[3,2]: z - 0.2170138888888889 cashProportion[2]
   + 0.2170138888888889 cashProportion[3] - 0.1194227430555555 x[2,1]
   - 0.0962022569444444 x[2,2] - 0.1619140625 x[2,3]
   - 0.1480034722222222 x[2,4] - 0.0654513888888889 x[2,5]
   - 0.0800130208333333 x[2,6] - 0.0325303819444444 x[2,7]
   - 0.0794487847222222 x[2,8] + 0.1194227430555555 x[3,1]
   + 0.0962022569444444 x[3,2] + 0.1619140625 x[3,3]
   + 0.1480034722222222 x[3,4] + 0.0654513888888889 x[3,5]
   + 0.0800130208333333 x[3,6] + 0.0325303819444444 x[3,7]
   + 0.0794487847222222 x[3,8] >= 0
 findWorstP[3,4]: z + 0.2170138888888889 cashProportion[3]
   - 0.2170138888888889 cashProportion[4] + 0.1194227430555555 x[3,1]
   + 0.0962022569444444 x[3,2] + 0.1619140625 x[3,3]
   + 0.1480034722222222 x[3,4] + 0.0654513888888889 x[3,5]
   + 0.0800130208333333 x[3,6] + 0.0325303819444444 x[3,7]
   + 0.0794487847222222 x[3,8] - 0.1194227430555555 x[4,1]
   - 0.0962022569444444 x[4,2] - 0.1619140625 x[4,3]
   - 0.1480034722222222 x[4,4] - 0.0654513888888889 x[4,5]
   - 0.0800130208333333 x[4,6] - 0.0325303819444444 x[4,7]
   - 0.0794487847222222 x[4,8] >= 0
 findWorstP[3,5]: z + 0.2170138888888889 cashProportion[3]
   - 0.2170138888888889 cashProportion[5] + 0.1194227430555555 x[3,1]
   + 0.0962022569444444 x[3,2] + 0.1619140625 x[3,3]
   + 0.1480034722222222 x[3,4] + 0.0654513888888889 x[3,5]
   + 0.0800130208333333 x[3,6] + 0.0325303819444444 x[3,7]
   + 0.0794487847222222 x[3,8] - 0.1194227430555555 x[5,1]
   - 0.0962022569444444 x[5,2] - 0.1619140625 x[5,3]
   - 0.1480034722222222 x[5,4] - 0.0654513888888889 x[5,5]
   - 0.0800130208333333 x[5,6] - 0.0325303819444444 x[5,7]
   - 0.0794487847222222 x[5,8] >= 0
 findWorstP[4,1]: z - 0.2145876697924938 cashProportion[1]
   + 0.2145876697924938 cashProportion[4] - 0.0568442737280316 x[1,1]
   - 0.0208364627368511 x[1,2] - 0.0888822128280509 x[1,3]
   - 0.0647840175103539 x[1,4] - 0.1859402158751958 x[1,5]
   - 0.0903628677496191 x[1,6] - 0.0944614922426557 x[1,7]
   - 0.1833007875367481 x[1,8] + 0.0568442737280316 x[4,1]
   + 0.0208364627368511 x[4,2] + 0.0888822128280509 x[4,3]
   + 0.0647840175103539 x[4,4] + 0.1859402158751958 x[4,5]
   + 0.0903628677496191 x[4,6] + 0.0944614922426557 x[4,7]
   + 0.1833007875367481 x[4,8] >= 0
 findWorstP[4,2]: z - 0.2145876697924938 cashProportion[2]
   + 0.2145876697924938 cashProportion[4] - 0.0568442737280316 x[2,1]
   - 0.0208364627368511 x[2,2] - 0.0888822128280509 x[2,3]
   - 0.0647840175103539 x[2,4] - 0.1859402158751958 x[2,5]
   - 0.0903628677496191 x[2,6] - 0.0944614922426557 x[2,7]
   - 0.1833007875367481 x[2,8] + 0.0568442737280316 x[4,1]
   + 0.0208364627368511 x[4,2] + 0.0888822128280509 x[4,3]
   + 0.0647840175103539 x[4,4] + 0.1859402158751958 x[4,5]
   + 0.0903628677496191 x[4,6] + 0.0944614922426557 x[4,7]
   + 0.1833007875367481 x[4,8] >= 0
 findWorstP[4,3]: z - 0.2145876697924938 cashProportion[3]
   + 0.2145876697924938 cashProportion[4] - 0.0568442737280316 x[3,1]
   - 0.0208364627368511 x[3,2] - 0.0888822128280509 x[3,3]
   - 0.0647840175103539 x[3,4] - 0.1859402158751958 x[3,5]
   - 0.0903628677496191 x[3,6] - 0.0944614922426557 x[3,7]
   - 0.1833007875367481 x[3,8] + 0.0568442737280316 x[4,1]
   + 0.0208364627368511 x[4,2] + 0.0888822128280509 x[4,3]
   + 0.0647840175103539 x[4,4] + 0.1859402158751958 x[4,5]
   + 0.0903628677496191 x[4,6] + 0.0944614922426557 x[4,7]
   + 0.1833007875367481 x[4,8] >= 0
 findWorstP[4,5]: z + 0.2145876697924938 cashProportion[4]
   - 0.2145876697924938 cashProportion[5] + 0.0568442737280316 x[4,1]
   + 0.0208364627368511 x[4,2] + 0.0888822128280509 x[4,3]
   + 0.0647840175103539 x[4,4] + 0.1859402158751958 x[4,5]
   + 0.0903628677496191 x[4,6] + 0.0944614922426557 x[4,7]
   + 0.1833007875367481 x[4,8] - 0.0568442737280316 x[5,1]
   - 0.0208364627368511 x[5,2] - 0.0888822128280509 x[5,3]
   - 0.0647840175103539 x[5,4] - 0.1859402158751958 x[5,5]
   - 0.0903628677496191 x[5,6] - 0.0944614922426557 x[5,7]
   - 0.1833007875367481 x[5,8] >= 0
 findWorstP[5,1]: z - 0.1759726890386612 cashProportion[1]
   + 0.1759726890386612 cashProportion[5] - 0.0776215531349535 x[1,1]
   - 0.0999348901050557 x[1,2] - 0.1601527442940856 x[1,3]
   - 0.1030848012388477 x[1,4] - 0.0553258134337551 x[1,5]
   - 0.1448783148855298 x[1,6] - 0.168511447023422 x[1,7]
   - 0.0145177468456895 x[1,8] + 0.0776215531349535 x[5,1]
   + 0.0999348901050557 x[5,2] + 0.1601527442940856 x[5,3]
   + 0.1030848012388477 x[5,4] + 0.0553258134337551 x[5,5]
   + 0.1448783148855298 x[5,6] + 0.168511447023422 x[5,7]
   + 0.0145177468456895 x[5,8] >= 0
 findWorstP[5,2]: z - 0.1759726890386612 cashProportion[2]
   + 0.1759726890386612 cashProportion[5] - 0.0776215531349535 x[2,1]
   - 0.0999348901050557 x[2,2] - 0.1601527442940856 x[2,3]
   - 0.1030848012388477 x[2,4] - 0.0553258134337551 x[2,5]
   - 0.1448783148855298 x[2,6] - 0.168511447023422 x[2,7]
   - 0.0145177468456895 x[2,8] + 0.0776215531349535 x[5,1]
   + 0.0999348901050557 x[5,2] + 0.1601527442940856 x[5,3]
   + 0.1030848012388477 x[5,4] + 0.0553258134337551 x[5,5]
   + 0.1448783148855298 x[5,6] + 0.168511447023422 x[5,7]
   + 0.0145177468456895 x[5,8] >= 0
 findWorstP[5,3]: z - 0.1759726890386612 cashProportion[3]
   + 0.1759726890386612 cashProportion[5] - 0.0776215531349535 x[3,1]
   - 0.0999348901050557 x[3,2] - 0.1601527442940856 x[3,3]
   - 0.1030848012388477 x[3,4] - 0.0553258134337551 x[3,5]
   - 0.1448783148855298 x[3,6] - 0.168511447023422 x[3,7]
   - 0.0145177468456895 x[3,8] + 0.0776215531349535 x[5,1]
   + 0.0999348901050557 x[5,2] + 0.1601527442940856 x[5,3]
   + 0.1030848012388477 x[5,4] + 0.0553258134337551 x[5,5]
   + 0.1448783148855298 x[5,6] + 0.168511447023422 x[5,7]
   + 0.0145177468456895 x[5,8] >= 0
 findWorstP[5,4]: z - 0.1759726890386612 cashProportion[4]
   + 0.1759726890386612 cashProportion[5] - 0.0776215531349535 x[4,1]
   - 0.0999348901050557 x[4,2] - 0.1601527442940856 x[4,3]
   - 0.1030848012388477 x[4,4] - 0.0553258134337551 x[4,5]
   - 0.1448783148855298 x[4,6] - 0.168511447023422 x[4,7]
   - 0.0145177468456895 x[4,8] + 0.0776215531349535 x[5,1]
   + 0.0999348901050557 x[5,2] + 0.1601527442940856 x[5,3]
   + 0.1030848012388477 x[5,4] + 0.0553258134337551 x[5,5]
   + 0.1448783148855298 x[5,6] + 0.168511447023422 x[5,7]
   + 0.0145177468456895 x[5,8] >= 0
Bounds
 z <= 1
 -infinity <= cashProportion[1] <= 1
 -infinity <= cashProportion[2] <= 1
 -infinity <= cashProportion[3] <= 1
 -infinity <= cashProportion[4] <= 1
 -infinity <= cashProportion[5] <= 1
Binaries
 x[1,1] x[1,2] x[1,3] x[1,4] x[1,5] x[1,6] x[1,7] x[1,8] x[2,1] x[2,2]
 x[2,3] x[2,4] x[2,5] x[2,6] x[2,7] x[2,8] x[3,1] x[3,2] x[3,3] x[3,4]
 x[3,5] x[3,6] x[3,7] x[3,8] x[4,1] x[4,2] x[4,3] x[4,4] x[4,5] x[4,6]
 x[4,7] x[4,8] x[5,1] x[5,2] x[5,3] x[5,4] x[5,5] x[5,6] x[5,7] x[5,8]
End
