data/mps_files/pEFS/88_9.mps
NAME foo
ROWS
 N  OBJ
 E  allocateEach[1]
 E  allocateEach[2]
 E  allocateEach[3]
 E  allocateEach[4]
 E  allocateEach[5]
 E  allocateEach[6]
 E  allocateEach[7]
 E  allocateEach[8]
 E  allocateAllCash
 G  findWorstP[1,2]
 G  findWorstP[1,3]
 G  findWorstP[1,4]
 G  findWorstP[1,5]
 G  findWorstP[2,1]
 G  findWorstP[2,3]
 G  findWorstP[2,4]
 G  findWorstP[2,5]
 G  findWorstP[3,1]
 G  findWorstP[3,2]
 G  findWorstP[3,4]
 G  findWorstP[3,5]
 G  findWorstP[4,1]
 G  findWorstP[4,2]
 G  findWorstP[4,3]
 G  findWorstP[4,5]
 G  findWorstP[5,1]
 G  findWorstP[5,2]
 G  findWorstP[5,3]
 G  findWorstP[5,4]
COLUMNS
    z         OBJ       1
    z         findWorstP[1,2]  1
    z         findWorstP[1,3]  1
    z         findWorstP[1,4]  1
    z         findWorstP[1,5]  1
    z         findWorstP[2,1]  1
    z         findWorstP[2,3]  1
    z         findWorstP[2,4]  1
    z         findWorstP[2,5]  1
    z         findWorstP[3,1]  1
    z         findWorstP[3,2]  1
    z         findWorstP[3,4]  1
    z         findWorstP[3,5]  1
    z         findWorstP[4,1]  1
    z         findWorstP[4,2]  1
    z         findWorstP[4,3]  1
    z         findWorstP[4,5]  1
    z         findWorstP[5,1]  1
    z         findWorstP[5,2]  1
    z         findWorstP[5,3]  1
    z         findWorstP[5,4]  1
    cashProportion[1]  allocateAllCash  1
    cashProportion[1]  findWorstP[1,2]  1.7365633411478687e-01
    cashProportion[1]  findWorstP[1,3]  1.7365633411478687e-01
    cashProportion[1]  findWorstP[1,4]  1.7365633411478687e-01
    cashProportion[1]  findWorstP[1,5]  1.7365633411478687e-01
    cashProportion[1]  findWorstP[2,1]  -1.8658108814090604e-01
    cashProportion[1]  findWorstP[3,1]  -2.1701388888888892e-01
    cashProportion[1]  findWorstP[4,1]  -2.1458766979249377e-01
    cashProportion[1]  findWorstP[5,1]  -1.7597268903866123e-01
    cashProportion[2]  allocateAllCash  1
    cashProportion[2]  findWorstP[1,2]  -1.7365633411478687e-01
    cashProportion[2]  findWorstP[2,1]  1.8658108814090604e-01
    cashProportion[2]  findWorstP[2,3]  1.8658108814090604e-01
    cashProportion[2]  findWorstP[2,4]  1.8658108814090604e-01
    cashProportion[2]  findWorstP[2,5]  1.8658108814090604e-01
    cashProportion[2]  findWorstP[3,2]  -2.1701388888888892e-01
    cashProportion[2]  findWorstP[4,2]  -2.1458766979249377e-01
    cashProportion[2]  findWorstP[5,2]  -1.7597268903866123e-01
    cashProportion[3]  allocateAllCash  1
    cashProportion[3]  findWorstP[1,3]  -1.7365633411478687e-01
    cashProportion[3]  findWorstP[2,3]  -1.8658108814090604e-01
    cashProportion[3]  findWorstP[3,1]  2.1701388888888892e-01
    cashProportion[3]  findWorstP[3,2]  2.1701388888888892e-01
    cashProportion[3]  findWorstP[3,4]  2.1701388888888892e-01
    cashProportion[3]  findWorstP[3,5]  2.1701388888888892e-01
    cashProportion[3]  findWorstP[4,3]  -2.1458766979249377e-01
    cashProportion[3]  findWorstP[5,3]  -1.7597268903866123e-01
    cashProportion[4]  allocateAllCash  1
    cashProportion[4]  findWorstP[1,4]  -1.7365633411478687e-01
    cashProportion[4]  findWorstP[2,4]  -1.8658108814090604e-01
    cashProportion[4]  findWorstP[3,4]  -2.1701388888888892e-01
    cashProportion[4]  findWorstP[4,1]  2.1458766979249377e-01
    cashProportion[4]  findWorstP[4,2]  2.1458766979249377e-01
    cashProportion[4]  findWorstP[4,3]  2.1458766979249377e-01
    cashProportion[4]  findWorstP[4,5]  2.1458766979249377e-01
    cashProportion[4]  findWorstP[5,4]  -1.7597268903866123e-01
    cashProportion[5]  allocateAllCash  1
    cashProportion[5]  findWorstP[1,5]  -1.7365633411478687e-01
    cashProportion[5]  findWorstP[2,5]  -1.8658108814090604e-01
    cashProportion[5]  findWorstP[3,5]  -2.1701388888888892e-01
    cashProportion[5]  findWorstP[4,5]  -2.1458766979249377e-01
    cashProportion[5]  findWorstP[5,1]  1.7597268903866123e-01
    cashProportion[5]  findWorstP[5,2]  1.7597268903866123e-01
    cashProportion[5]  findWorstP[5,3]  1.7597268903866123e-01
    cashProportion[5]  findWorstP[5,4]  1.7597268903866123e-01
    MARKER    'MARKER'                 'INTORG'
    x[1,1]    allocateEach[1]  1
    x[1,1]    findWorstP[1,2]  9.6257705999826346e-02
    x[1,1]    findWorstP[1,3]  9.6257705999826346e-02
    x[1,1]    findWorstP[1,4]  9.6257705999826346e-02
    x[1,1]    findWorstP[1,5]  9.6257705999826346e-02
    x[1,1]    findWorstP[2,1]  -1.2331144115232480e-01
    x[1,1]    findWorstP[3,1]  -1.1942274305555554e-01
    x[1,1]    findWorstP[4,1]  -5.6844273728031594e-02
    x[1,1]    findWorstP[5,1]  -7.7621553134953461e-02
    x[1,2]    allocateEach[2]  1
    x[1,2]    findWorstP[1,2]  3.7561865069028394e-02
    x[1,2]    findWorstP[1,3]  3.7561865069028394e-02
    x[1,2]    findWorstP[1,4]  3.7561865069028394e-02
    x[1,2]    findWorstP[1,5]  3.7561865069028394e-02
    x[1,2]    findWorstP[2,1]  -7.1255317561012013e-02
    x[1,2]    findWorstP[3,1]  -9.6202256944444439e-02
    x[1,2]    findWorstP[4,1]  -2.0836462736851143e-02
    x[1,2]    findWorstP[5,1]  -9.9934890105055685e-02
    x[1,3]    allocateEach[3]  1
    x[1,3]    findWorstP[1,2]  1.2737692107319615e-01
    x[1,3]    findWorstP[1,3]  1.2737692107319615e-01
    x[1,3]    findWorstP[1,4]  1.2737692107319615e-01
    x[1,3]    findWorstP[1,5]  1.2737692107319615e-01
    x[1,3]    findWorstP[2,1]  -1.1902007612508395e-01
    x[1,3]    findWorstP[3,1]  -1.6191406249999998e-01
    x[1,3]    findWorstP[4,1]  -0.0888822128280509
    x[1,3]    findWorstP[5,1]  -1.6015274429408557e-01
    x[1,4]    allocateEach[4]  1
    x[1,4]    findWorstP[1,2]  1.4552400798819137e-01
    x[1,4]    findWorstP[1,3]  1.4552400798819137e-01
    x[1,4]    findWorstP[1,4]  1.4552400798819137e-01
    x[1,4]    findWorstP[1,5]  1.4552400798819137e-01
    x[1,4]    findWorstP[2,1]  -1.0784386894544367e-02
    x[1,4]    findWorstP[3,1]  -1.4800347222222221e-01
    x[1,4]    findWorstP[4,1]  -6.4784017510353856e-02
    x[1,4]    findWorstP[5,1]  -1.0308480123884772e-01
    x[1,5]    allocateEach[5]  1
    x[1,5]    findWorstP[1,2]  1.4828514370061649e-01
    x[1,5]    findWorstP[1,3]  1.4828514370061649e-01
    x[1,5]    findWorstP[1,4]  1.4828514370061649e-01
    x[1,5]    findWorstP[1,5]  1.4828514370061649e-01
    x[1,5]    findWorstP[2,1]  -1.0467199044704827e-02
    x[1,5]    findWorstP[3,1]  -6.5451388888888878e-02
    x[1,5]    findWorstP[4,1]  -1.8594021587519582e-01
    x[1,5]    findWorstP[5,1]  -5.5325813433755082e-02
    x[1,6]    allocateEach[6]  1
    x[1,6]    findWorstP[1,2]  2.4659199444299729e-02
    x[1,6]    findWorstP[1,3]  2.4659199444299729e-02
    x[1,6]    findWorstP[1,4]  2.4659199444299729e-02
    x[1,6]    findWorstP[1,5]  2.4659199444299729e-02
    x[1,6]    findWorstP[2,1]  -1.7844615269796252e-01
    x[1,6]    findWorstP[3,1]  -8.0013020833333337e-02
    x[1,6]    findWorstP[4,1]  -0.0903628677496191
    x[1,6]    findWorstP[5,1]  -1.4487831488552977e-01
    x[1,7]    allocateEach[7]  1
    x[1,7]    findWorstP[1,2]  1.6222974733003387e-01
    x[1,7]    findWorstP[1,3]  1.6222974733003387e-01
    x[1,7]    findWorstP[1,4]  1.6222974733003387e-01
    x[1,7]    findWorstP[1,5]  1.6222974733003387e-01
    x[1,7]    findWorstP[2,1]  -1.8628255839988056e-01
    x[1,7]    findWorstP[3,1]  -3.2530381944444443e-02
    x[1,7]    findWorstP[4,1]  -9.4461492242655737e-02
    x[1,7]    findWorstP[5,1]  -1.6851144702342197e-01
    x[1,8]    allocateEach[8]  1
    x[1,8]    findWorstP[1,2]  8.4449075280020838e-02
    x[1,8]    findWorstP[1,3]  8.4449075280020838e-02
    x[1,8]    findWorstP[1,4]  8.4449075280020838e-02
    x[1,8]    findWorstP[1,5]  8.4449075280020838e-02
    x[1,8]    findWorstP[2,1]  -1.1385177998358084e-01
    x[1,8]    findWorstP[3,1]  -7.9448784722222207e-02
    x[1,8]    findWorstP[4,1]  -1.8330078753674814e-01
    x[1,8]    findWorstP[5,1]  -1.4517746845689549e-02
    x[2,1]    allocateEach[1]  1
    x[2,1]    findWorstP[1,2]  -9.6257705999826346e-02
    x[2,1]    findWorstP[2,1]  1.2331144115232480e-01
    x[2,1]    findWorstP[2,3]  1.2331144115232480e-01
    x[2,1]    findWorstP[2,4]  1.2331144115232480e-01
    x[2,1]    findWorstP[2,5]  1.2331144115232480e-01
    x[2,1]    findWorstP[3,2]  -1.1942274305555554e-01
    x[2,1]    findWorstP[4,2]  -5.6844273728031594e-02
    x[2,1]    findWorstP[5,2]  -7.7621553134953461e-02
    x[2,2]    allocateEach[2]  1
    x[2,2]    findWorstP[1,2]  -3.7561865069028394e-02
    x[2,2]    findWorstP[2,1]  7.1255317561012013e-02
    x[2,2]    findWorstP[2,3]  7.1255317561012013e-02
    x[2,2]    findWorstP[2,4]  7.1255317561012013e-02
    x[2,2]    findWorstP[2,5]  7.1255317561012013e-02
    x[2,2]    findWorstP[3,2]  -9.6202256944444439e-02
    x[2,2]    findWorstP[4,2]  -2.0836462736851143e-02
    x[2,2]    findWorstP[5,2]  -9.9934890105055685e-02
    x[2,3]    allocateEach[3]  1
    x[2,3]    findWorstP[1,2]  -1.2737692107319615e-01
    x[2,3]    findWorstP[2,1]  1.1902007612508395e-01
    x[2,3]    findWorstP[2,3]  1.1902007612508395e-01
    x[2,3]    findWorstP[2,4]  1.1902007612508395e-01
    x[2,3]    findWorstP[2,5]  1.1902007612508395e-01
    x[2,3]    findWorstP[3,2]  -1.6191406249999998e-01
    x[2,3]    findWorstP[4,2]  -0.0888822128280509
    x[2,3]    findWorstP[5,2]  -1.6015274429408557e-01
    x[2,4]    allocateEach[4]  1
    x[2,4]    findWorstP[1,2]  -1.4552400798819137e-01
    x[2,4]    findWorstP[2,1]  1.0784386894544367e-02
    x[2,4]    findWorstP[2,3]  1.0784386894544367e-02
    x[2,4]    findWorstP[2,4]  1.0784386894544367e-02
    x[2,4]    findWorstP[2,5]  1.0784386894544367e-02
    x[2,4]    findWorstP[3,2]  -1.4800347222222221e-01
    x[2,4]    findWorstP[4,2]  -6.4784017510353856e-02
    x[2,4]    findWorstP[5,2]  -1.0308480123884772e-01
    x[2,5]    allocateEach[5]  1
    x[2,5]    findWorstP[1,2]  -1.4828514370061649e-01
    x[2,5]    findWorstP[2,1]  1.0467199044704827e-02
    x[2,5]    findWorstP[2,3]  1.0467199044704827e-02
    x[2,5]    findWorstP[2,4]  1.0467199044704827e-02
    x[2,5]    findWorstP[2,5]  1.0467199044704827e-02
    x[2,5]    findWorstP[3,2]  -6.5451388888888878e-02
    x[2,5]    findWorstP[4,2]  -1.8594021587519582e-01
    x[2,5]    findWorstP[5,2]  -5.5325813433755082e-02
    x[2,6]    allocateEach[6]  1
    x[2,6]    findWorstP[1,2]  -2.4659199444299729e-02
    x[2,6]    findWorstP[2,1]  1.7844615269796252e-01
    x[2,6]    findWorstP[2,3]  1.7844615269796252e-01
    x[2,6]    findWorstP[2,4]  1.7844615269796252e-01
    x[2,6]    findWorstP[2,5]  1.7844615269796252e-01
    x[2,6]    findWorstP[3,2]  -8.0013020833333337e-02
    x[2,6]    findWorstP[4,2]  -0.0903628677496191
    x[2,6]    findWorstP[5,2]  -1.4487831488552977e-01
    x[2,7]    allocateEach[7]  1
    x[2,7]    findWorstP[1,2]  -1.6222974733003387e-01
    x[2,7]    findWorstP[2,1]  1.8628255839988056e-01
    x[2,7]    findWorstP[2,3]  1.8628255839988056e-01
    x[2,7]    findWorstP[2,4]  1.8628255839988056e-01
    x[2,7]    findWorstP[2,5]  1.8628255839988056e-01
    x[2,7]    findWorstP[3,2]  -3.2530381944444443e-02
    x[2,7]    findWorstP[4,2]  -9.4461492242655737e-02
    x[2,7]    findWorstP[5,2]  -1.6851144702342197e-01
    x[2,8]    allocateEach[8]  1
    x[2,8]    findWorstP[1,2]  -8.4449075280020838e-02
    x[2,8]    findWorstP[2,1]  1.1385177998358084e-01
    x[2,8]    findWorstP[2,3]  1.1385177998358084e-01
    x[2,8]    findWorstP[2,4]  1.1385177998358084e-01
    x[2,8]    findWorstP[2,5]  1.1385177998358084e-01
    x[2,8]    findWorstP[3,2]  -7.9448784722222207e-02
    x[2,8]    findWorstP[4,2]  -1.8330078753674814e-01
    x[2,8]    findWorstP[5,2]  -1.4517746845689549e-02
    x[3,1]    allocateEach[1]  1
    x[3,1]    findWorstP[1,3]  -9.6257705999826346e-02
    x[3,1]    findWorstP[2,3]  -1.2331144115232480e-01
    x[3,1]    findWorstP[3,1]  1.1942274305555554e-01
    x[3,1]    findWorstP[3,2]  1.1942274305555554e-01
    x[3,1]    findWorstP[3,4]  1.1942274305555554e-01
    x[3,1]    findWorstP[3,5]  1.1942274305555554e-01
    x[3,1]    findWorstP[4,3]  -5.6844273728031594e-02
    x[3,1]    findWorstP[5,3]  -7.7621553134953461e-02
    x[3,2]    allocateEach[2]  1
    x[3,2]    findWorstP[1,3]  -3.7561865069028394e-02
    x[3,2]    findWorstP[2,3]  -7.1255317561012013e-02
    x[3,2]    findWorstP[3,1]  9.6202256944444439e-02
    x[3,2]    findWorstP[3,2]  9.6202256944444439e-02
    x[3,2]    findWorstP[3,4]  9.6202256944444439e-02
    x[3,2]    findWorstP[3,5]  9.6202256944444439e-02
    x[3,2]    findWorstP[4,3]  -2.0836462736851143e-02
    x[3,2]    findWorstP[5,3]  -9.9934890105055685e-02
    x[3,3]    allocateEach[3]  1
    x[3,3]    findWorstP[1,3]  -1.2737692107319615e-01
    x[3,3]    findWorstP[2,3]  -1.1902007612508395e-01
    x[3,3]    findWorstP[3,1]  1.6191406249999998e-01
    x[3,3]    findWorstP[3,2]  1.6191406249999998e-01
    x[3,3]    findWorstP[3,4]  1.6191406249999998e-01
    x[3,3]    findWorstP[3,5]  1.6191406249999998e-01
    x[3,3]    findWorstP[4,3]  -0.0888822128280509
    x[3,3]    findWorstP[5,3]  -1.6015274429408557e-01
    x[3,4]    allocateEach[4]  1
    x[3,4]    findWorstP[1,3]  -1.4552400798819137e-01
    x[3,4]    findWorstP[2,3]  -1.0784386894544367e-02
    x[3,4]    findWorstP[3,1]  1.4800347222222221e-01
    x[3,4]    findWorstP[3,2]  1.4800347222222221e-01
    x[3,4]    findWorstP[3,4]  1.4800347222222221e-01
    x[3,4]    findWorstP[3,5]  1.4800347222222221e-01
    x[3,4]    findWorstP[4,3]  -6.4784017510353856e-02
    x[3,4]    findWorstP[5,3]  -1.0308480123884772e-01
    x[3,5]    allocateEach[5]  1
    x[3,5]    findWorstP[1,3]  -1.4828514370061649e-01
    x[3,5]    findWorstP[2,3]  -1.0467199044704827e-02
    x[3,5]    findWorstP[3,1]  6.5451388888888878e-02
    x[3,5]    findWorstP[3,2]  6.5451388888888878e-02
    x[3,5]    findWorstP[3,4]  6.5451388888888878e-02
    x[3,5]    findWorstP[3,5]  6.5451388888888878e-02
    x[3,5]    findWorstP[4,3]  -1.8594021587519582e-01
    x[3,5]    findWorstP[5,3]  -5.5325813433755082e-02
    x[3,6]    allocateEach[6]  1
    x[3,6]    findWorstP[1,3]  -2.4659199444299729e-02
    x[3,6]    findWorstP[2,3]  -1.7844615269796252e-01
    x[3,6]    findWorstP[3,1]  8.0013020833333337e-02
    x[3,6]    findWorstP[3,2]  8.0013020833333337e-02
    x[3,6]    findWorstP[3,4]  8.0013020833333337e-02
    x[3,6]    findWorstP[3,5]  8.0013020833333337e-02
    x[3,6]    findWorstP[4,3]  -0.0903628677496191
    x[3,6]    findWorstP[5,3]  -1.4487831488552977e-01
    x[3,7]    allocateEach[7]  1
    x[3,7]    findWorstP[1,3]  -1.6222974733003387e-01
    x[3,7]    findWorstP[2,3]  -1.8628255839988056e-01
    x[3,7]    findWorstP[3,1]  3.2530381944444443e-02
    x[3,7]    findWorstP[3,2]  3.2530381944444443e-02
    x[3,7]    findWorstP[3,4]  3.2530381944444443e-02
    x[3,7]    findWorstP[3,5]  3.2530381944444443e-02
    x[3,7]    findWorstP[4,3]  -9.4461492242655737e-02
    x[3,7]    findWorstP[5,3]  -1.6851144702342197e-01
    x[3,8]    allocateEach[8]  1
    x[3,8]    findWorstP[1,3]  -8.4449075280020838e-02
    x[3,8]    findWorstP[2,3]  -1.1385177998358084e-01
    x[3,8]    findWorstP[3,1]  7.9448784722222207e-02
    x[3,8]    findWorstP[3,2]  7.9448784722222207e-02
    x[3,8]    findWorstP[3,4]  7.9448784722222207e-02
    x[3,8]    findWorstP[3,5]  7.9448784722222207e-02
    x[3,8]    findWorstP[4,3]  -1.8330078753674814e-01
    x[3,8]    findWorstP[5,3]  -1.4517746845689549e-02
    x[4,1]    allocateEach[1]  1
    x[4,1]    findWorstP[1,4]  -9.6257705999826346e-02
    x[4,1]    findWorstP[2,4]  -1.2331144115232480e-01
    x[4,1]    findWorstP[3,4]  -1.1942274305555554e-01
    x[4,1]    findWorstP[4,1]  5.6844273728031594e-02
    x[4,1]    findWorstP[4,2]  5.6844273728031594e-02
    x[4,1]    findWorstP[4,3]  5.6844273728031594e-02
    x[4,1]    findWorstP[4,5]  5.6844273728031594e-02
    x[4,1]    findWorstP[5,4]  -7.7621553134953461e-02
    x[4,2]    allocateEach[2]  1
    x[4,2]    findWorstP[1,4]  -3.7561865069028394e-02
    x[4,2]    findWorstP[2,4]  -7.1255317561012013e-02
    x[4,2]    findWorstP[3,4]  -9.6202256944444439e-02
    x[4,2]    findWorstP[4,1]  2.0836462736851143e-02
    x[4,2]    findWorstP[4,2]  2.0836462736851143e-02
    x[4,2]    findWorstP[4,3]  2.0836462736851143e-02
    x[4,2]    findWorstP[4,5]  2.0836462736851143e-02
    x[4,2]    findWorstP[5,4]  -9.9934890105055685e-02
    x[4,3]    allocateEach[3]  1
    x[4,3]    findWorstP[1,4]  -1.2737692107319615e-01
    x[4,3]    findWorstP[2,4]  -1.1902007612508395e-01
    x[4,3]    findWorstP[3,4]  -1.6191406249999998e-01
    x[4,3]    findWorstP[4,1]  0.0888822128280509
    x[4,3]    findWorstP[4,2]  0.0888822128280509
    x[4,3]    findWorstP[4,3]  0.0888822128280509
    x[4,3]    findWorstP[4,5]  0.0888822128280509
    x[4,3]    findWorstP[5,4]  -1.6015274429408557e-01
    x[4,4]    allocateEach[4]  1
    x[4,4]    findWorstP[1,4]  -1.4552400798819137e-01
    x[4,4]    findWorstP[2,4]  -1.0784386894544367e-02
    x[4,4]    findWorstP[3,4]  -1.4800347222222221e-01
    x[4,4]    findWorstP[4,1]  6.4784017510353856e-02
    x[4,4]    findWorstP[4,2]  6.4784017510353856e-02
    x[4,4]    findWorstP[4,3]  6.4784017510353856e-02
    x[4,4]    findWorstP[4,5]  6.4784017510353856e-02
    x[4,4]    findWorstP[5,4]  -1.0308480123884772e-01
    x[4,5]    allocateEach[5]  1
    x[4,5]    findWorstP[1,4]  -1.4828514370061649e-01
    x[4,5]    findWorstP[2,4]  -1.0467199044704827e-02
    x[4,5]    findWorstP[3,4]  -6.5451388888888878e-02
    x[4,5]    findWorstP[4,1]  1.8594021587519582e-01
    x[4,5]    findWorstP[4,2]  1.8594021587519582e-01
    x[4,5]    findWorstP[4,3]  1.8594021587519582e-01
    x[4,5]    findWorstP[4,5]  1.8594021587519582e-01
    x[4,5]    findWorstP[5,4]  -5.5325813433755082e-02
    x[4,6]    allocateEach[6]  1
    x[4,6]    findWorstP[1,4]  -2.4659199444299729e-02
    x[4,6]    findWorstP[2,4]  -1.7844615269796252e-01
    x[4,6]    findWorstP[3,4]  -8.0013020833333337e-02
    x[4,6]    findWorstP[4,1]  0.0903628677496191
    x[4,6]    findWorstP[4,2]  0.0903628677496191
    x[4,6]    findWorstP[4,3]  0.0903628677496191
    x[4,6]    findWorstP[4,5]  0.0903628677496191
    x[4,6]    findWorstP[5,4]  -1.4487831488552977e-01
    x[4,7]    allocateEach[7]  1
    x[4,7]    findWorstP[1,4]  -1.6222974733003387e-01
    x[4,7]    findWorstP[2,4]  -1.8628255839988056e-01
    x[4,7]    findWorstP[3,4]  -3.2530381944444443e-02
    x[4,7]    findWorstP[4,1]  9.4461492242655737e-02
    x[4,7]    findWorstP[4,2]  9.4461492242655737e-02
    x[4,7]    findWorstP[4,3]  9.4461492242655737e-02
    x[4,7]    findWorstP[4,5]  9.4461492242655737e-02
    x[4,7]    findWorstP[5,4]  -1.6851144702342197e-01
    x[4,8]    allocateEach[8]  1
    x[4,8]    findWorstP[1,4]  -8.4449075280020838e-02
    x[4,8]    findWorstP[2,4]  -1.1385177998358084e-01
    x[4,8]    findWorstP[3,4]  -7.9448784722222207e-02
    x[4,8]    findWorstP[4,1]  1.8330078753674814e-01
    x[4,8]    findWorstP[4,2]  1.8330078753674814e-01
    x[4,8]    findWorstP[4,3]  1.8330078753674814e-01
    x[4,8]    findWorstP[4,5]  1.8330078753674814e-01
    x[4,8]    findWorstP[5,4]  -1.4517746845689549e-02
    x[5,1]    allocateEach[1]  1
    x[5,1]    findWorstP[1,5]  -9.6257705999826346e-02
    x[5,1]    findWorstP[2,5]  -1.2331144115232480e-01
    x[5,1]    findWorstP[3,5]  -1.1942274305555554e-01
    x[5,1]    findWorstP[4,5]  -5.6844273728031594e-02
    x[5,1]    findWorstP[5,1]  7.7621553134953461e-02
    x[5,1]    findWorstP[5,2]  7.7621553134953461e-02
    x[5,1]    findWorstP[5,3]  7.7621553134953461e-02
    x[5,1]    findWorstP[5,4]  7.7621553134953461e-02
    x[5,2]    allocateEach[2]  1
    x[5,2]    findWorstP[1,5]  -3.7561865069028394e-02
    x[5,2]    findWorstP[2,5]  -7.1255317561012013e-02
    x[5,2]    findWorstP[3,5]  -9.6202256944444439e-02
    x[5,2]    findWorstP[4,5]  -2.0836462736851143e-02
    x[5,2]    findWorstP[5,1]  9.9934890105055685e-02
    x[5,2]    findWorstP[5,2]  9.9934890105055685e-02
    x[5,2]    findWorstP[5,3]  9.9934890105055685e-02
    x[5,2]    findWorstP[5,4]  9.9934890105055685e-02
    x[5,3]    allocateEach[3]  1
    x[5,3]    findWorstP[1,5]  -1.2737692107319615e-01
    x[5,3]    findWorstP[2,5]  -1.1902007612508395e-01
    x[5,3]    findWorstP[3,5]  -1.6191406249999998e-01
    x[5,3]    findWorstP[4,5]  -0.0888822128280509
    x[5,3]    findWorstP[5,1]  1.6015274429408557e-01
    x[5,3]    findWorstP[5,2]  1.6015274429408557e-01
    x[5,3]    findWorstP[5,3]  1.6015274429408557e-01
    x[5,3]    findWorstP[5,4]  1.6015274429408557e-01
    x[5,4]    allocateEach[4]  1
    x[5,4]    findWorstP[1,5]  -1.4552400798819137e-01
    x[5,4]    findWorstP[2,5]  -1.0784386894544367e-02
    x[5,4]    findWorstP[3,5]  -1.4800347222222221e-01
    x[5,4]    findWorstP[4,5]  -6.4784017510353856e-02
    x[5,4]    findWorstP[5,1]  1.0308480123884772e-01
    x[5,4]    findWorstP[5,2]  1.0308480123884772e-01
    x[5,4]    findWorstP[5,3]  1.0308480123884772e-01
    x[5,4]    findWorstP[5,4]  1.0308480123884772e-01
    x[5,5]    allocateEach[5]  1
    x[5,5]    findWorstP[1,5]  -1.4828514370061649e-01
    x[5,5]    findWorstP[2,5]  -1.0467199044704827e-02
    x[5,5]    findWorstP[3,5]  -6.5451388888888878e-02
    x[5,5]    findWorstP[4,5]  -1.8594021587519582e-01
    x[5,5]    findWorstP[5,1]  5.5325813433755082e-02
    x[5,5]    findWorstP[5,2]  5.5325813433755082e-02
    x[5,5]    findWorstP[5,3]  5.5325813433755082e-02
    x[5,5]    findWorstP[5,4]  5.5325813433755082e-02
    x[5,6]    allocateEach[6]  1
    x[5,6]    findWorstP[1,5]  -2.4659199444299729e-02
    x[5,6]    findWorstP[2,5]  -1.7844615269796252e-01
    x[5,6]    findWorstP[3,5]  -8.0013020833333337e-02
    x[5,6]    findWorstP[4,5]  -0.0903628677496191
    x[5,6]    findWorstP[5,1]  1.4487831488552977e-01
    x[5,6]    findWorstP[5,2]  1.4487831488552977e-01
    x[5,6]    findWorstP[5,3]  1.4487831488552977e-01
    x[5,6]    findWorstP[5,4]  1.4487831488552977e-01
    x[5,7]    allocateEach[7]  1
    x[5,7]    findWorstP[1,5]  -1.6222974733003387e-01
    x[5,7]    findWorstP[2,5]  -1.8628255839988056e-01
    x[5,7]    findWorstP[3,5]  -3.2530381944444443e-02
    x[5,7]    findWorstP[4,5]  -9.4461492242655737e-02
    x[5,7]    findWorstP[5,1]  1.6851144702342197e-01
    x[5,7]    findWorstP[5,2]  1.6851144702342197e-01
    x[5,7]    findWorstP[5,3]  1.6851144702342197e-01
    x[5,7]    findWorstP[5,4]  1.6851144702342197e-01
    x[5,8]    allocateEach[8]  1
    x[5,8]    findWorstP[1,5]  -8.4449075280020838e-02
    x[5,8]    findWorstP[2,5]  -1.1385177998358084e-01
    x[5,8]    findWorstP[3,5]  -7.9448784722222207e-02
    x[5,8]    findWorstP[4,5]  -1.8330078753674814e-01
    x[5,8]    findWorstP[5,1]  1.4517746845689549e-02
    x[5,8]    findWorstP[5,2]  1.4517746845689549e-02
    x[5,8]    findWorstP[5,3]  1.4517746845689549e-02
    x[5,8]    findWorstP[5,4]  1.4517746845689549e-02
    MARKER    'MARKER'                 'INTEND'
RHS
    RHS1      allocateEach[1]  1
    RHS1      allocateEach[2]  1
    RHS1      allocateEach[3]  1
    RHS1      allocateEach[4]  1
    RHS1      allocateEach[5]  1
    RHS1      allocateEach[6]  1
    RHS1      allocateEach[7]  1
    RHS1      allocateEach[8]  1
    RHS1      allocateAllCash  1
BOUNDS
 UP BND1      z         1
 MI BND1      cashProportion[1]
 UP BND1      cashProportion[1]  1
 MI BND1      cashProportion[2]
 UP BND1      cashProportion[2]  1
 MI BND1      cashProportion[3]
 UP BND1      cashProportion[3]  1
 MI BND1      cashProportion[4]
 UP BND1      cashProportion[4]  1
 MI BND1      cashProportion[5]
 UP BND1      cashProportion[5]  1
 BV BND1      x[1,1]  
 BV BND1      x[1,2]  
 BV BND1      x[1,3]  
 BV BND1      x[1,4]  
 BV BND1      x[1,5]  
 BV BND1      x[1,6]  
 BV BND1      x[1,7]  
 BV BND1      x[1,8]  
 BV BND1      x[2,1]  
 BV BND1      x[2,2]  
 BV BND1      x[2,3]  
 BV BND1      x[2,4]  
 BV BND1      x[2,5]  
 BV BND1      x[2,6]  
 BV BND1      x[2,7]  
 BV BND1      x[2,8]  
 BV BND1      x[3,1]  
 BV BND1      x[3,2]  
 BV BND1      x[3,3]  
 BV BND1      x[3,4]  
 BV BND1      x[3,5]  
 BV BND1      x[3,6]  
 BV BND1      x[3,7]  
 BV BND1      x[3,8]  
 BV BND1      x[4,1]  
 BV BND1      x[4,2]  
 BV BND1      x[4,3]  
 BV BND1      x[4,4]  
 BV BND1      x[4,5]  
 BV BND1      x[4,6]  
 BV BND1      x[4,7]  
 BV BND1      x[4,8]  
 BV BND1      x[5,1]  
 BV BND1      x[5,2]  
 BV BND1      x[5,3]  
 BV BND1      x[5,4]  
 BV BND1      x[5,5]  
 BV BND1      x[5,6]  
 BV BND1      x[5,7]  
 BV BND1      x[5,8]  
ENDATA
